c instance by G2
c solution = 00110011110101110011100
c Known solution cost is 1166 
p cnf 23 30
w 2 84 22 13 91 82 73 89 59 51 7 36 92 5 35 16 38 99 80 76 21 36 59
23 6 -11 0
7 -9 -3 0
19 11 2 0
13 23 -22 0
-1 -14 -9 0
-6 -21 13 0
22 5 -18 0
5 14 17 0
3 -15 -5 0
9 23 -19 0
-7 13 16 0
-20 19 -18 0
-12 4 -14 0
22 -20 8 0
10 18 11 0
23 -16 -17 0
-4 13 12 0
-4 5 21 0
3 7 23 0
3 6 2 0
5 6 -2 0
-23 17 -12 0
-14 2 -13 0
21 11 -17 0
-12 22 20 0
20 -22 21 0
15 -14 17 0
-10 23 9 0
19 16 -23 0
-5 -7 -12 0
